Distorted B1
1.0
3.9 0.0 0.0
0.0 5.1 0.0
0.0 0.0 5.1
Zn O
4 4
Direct
0.0 0.0 0.0
0.5 0.5 0.0
0.0 0.5 0.5
0.5 0.0 0.5
0.5 0.0 0.0
0.0 0.5 0.0
0.0 0.0 0.5
0.5 0.5 0.5
